(set-info :source |printed by MathSAT|)
(declare-fun |!{$(in_main#0)<i>}| () Int)
(declare-fun |!{$(in_main#0)<i>}.next| () Int)
(declare-fun |!{$(in_main#0)<idx>}| () Int)
(declare-fun |!{$(in_main#0)<idx>}.next| () Int)
(declare-fun |!{$(in_main#0)<j>}| () Int)
(declare-fun |!{$(in_main#0)<j>}.next| () Int)
(declare-fun |!{$(in_main#0)<k>}| () Int)
(declare-fun |!{$(in_main#0)<k>}.next| () Int)
(declare-fun |!{$(in_main#0)<v>}| () Int)
(declare-fun |!{$(in_main#0)<v>}.next| () Int)
(declare-fun |!{$(in_main#0)<array.1>}| () (Array Int Int))
(declare-fun |!{$(in_main#0)<array.1>}.next| () (Array Int Int))
(declare-fun |!{$(in_main#0)<N>}| () Int)
(declare-fun |!{$(in_main#0)<N>}.next| () Int)
(declare-fun |!{$(in_main#0)<$(in___VERIFIER_nondet_int#0)<h#<__VERIFIER_nondet_int.return>>>}| () Int)
(declare-fun |!{$(in_main#0)<$(in___VERIFIER_nondet_int#2)<h#<__VERIFIER_nondet_int.return>>>}| () Int)
(declare-fun |!{$(in_main#0)<$(in___VERIFIER_nondet_int#3)<h#<__VERIFIER_nondet_int.return>>>}| () Int)
(declare-fun !pc () Int)
(declare-fun !pc.next () Int)
(declare-fun |%{$(in_main#0)<i>}#1| () Int)
(declare-fun |%{$(in_main#0)<idx>}#1| () Int)
(declare-fun |%{$(in_main#0)<j>}#1| () Int)
(declare-fun |%{$(in_main#0)<v>}#1| () Int)
(declare-fun |%{$(in_main#0)<array.1>}#1| () (Array Int Int))
(declare-fun |%{$(in_main#0)<idx>}#2| () Int)
(declare-fun |%{$(in_main#0)<idx>}#4| () Int)
(define-fun .def_40 () Int (! !pc :next !pc.next))
(define-fun .def_43 () Bool (! (= .def_40 2) :init true))
(define-fun .def_219 () Bool (= .def_40 43))
(define-fun .def_184 () Bool (= !pc.next 73))
(define-fun .def_222 () Bool (and .def_184 .def_219))
(define-fun .def_214 () Bool (= |!{$(in_main#0)<v>}.next| |!{$(in_main#0)<$(in___VERIFIER_nondet_int#3)<h#<__VERIFIER_nondet_int.return>>>}|))
(define-fun .def_20 () Int (! |!{$(in_main#0)<N>}| :next |!{$(in_main#0)<N>}.next|))
(define-fun .def_211 () Bool (= |!{$(in_main#0)<j>}.next| .def_20))
(define-fun .def_209 () Bool (= |!{$(in_main#0)<idx>}.next| (- 1)))
(define-fun .def_208 () Bool (= |!{$(in_main#0)<i>}.next| 0))
(define-fun .def_210 () Bool (and .def_208 .def_209))
(define-fun .def_212 () Bool (and .def_210 .def_211))
(define-fun .def_14 () Int (! |!{$(in_main#0)<k>}| :next |!{$(in_main#0)<k>}.next|))
(define-fun .def_85 () Bool (= .def_14 |!{$(in_main#0)<k>}.next|))
(define-fun .def_213 () Bool (and .def_85 .def_212))
(define-fun .def_215 () Bool (and .def_213 .def_214))
(define-fun .def_18 () (Array Int Int) (! |!{$(in_main#0)<array.1>}| :next |!{$(in_main#0)<array.1>}.next|))
(define-fun .def_89 () Bool (= .def_18 |!{$(in_main#0)<array.1>}.next|))
(define-fun .def_216 () Bool (and .def_89 .def_215))
(define-fun .def_91 () Bool (= .def_20 |!{$(in_main#0)<N>}.next|))
(define-fun .def_217 () Bool (and .def_91 .def_216))
(define-fun .def_195 () Bool (<= .def_20 .def_14))
(define-fun .def_218 () Bool (and .def_195 .def_217))
(define-fun .def_223 () Bool (and .def_218 .def_222))
(define-fun .def_77 () Bool (= !pc.next 43))
(define-fun .def_220 () Bool (and .def_77 .def_219))
(define-fun .def_197 () (Array Int Int) (store .def_18 .def_14 |!{$(in_main#0)<$(in___VERIFIER_nondet_int#2)<h#<__VERIFIER_nondet_int.return>>>}|))
(define-fun .def_204 () Bool (= |!{$(in_main#0)<array.1>}.next| .def_197))
(define-fun .def_199 () Int (* (- 1) |!{$(in_main#0)<k>}.next|))
(define-fun .def_200 () Int (+ .def_14 .def_199))
(define-fun .def_201 () Bool (= .def_200 (- 1)))
(define-fun .def_12 () Int (! |!{$(in_main#0)<j>}| :next |!{$(in_main#0)<j>}.next|))
(define-fun .def_83 () Bool (= .def_12 |!{$(in_main#0)<j>}.next|))
(define-fun .def_10 () Int (! |!{$(in_main#0)<idx>}| :next |!{$(in_main#0)<idx>}.next|))
(define-fun .def_81 () Bool (= .def_10 |!{$(in_main#0)<idx>}.next|))
(define-fun .def_8 () Int (! |!{$(in_main#0)<i>}| :next |!{$(in_main#0)<i>}.next|))
(define-fun .def_80 () Bool (= .def_8 |!{$(in_main#0)<i>}.next|))
(define-fun .def_82 () Bool (and .def_80 .def_81))
(define-fun .def_84 () Bool (and .def_82 .def_83))
(define-fun .def_202 () Bool (and .def_84 .def_201))
(define-fun .def_16 () Int (! |!{$(in_main#0)<v>}| :next |!{$(in_main#0)<v>}.next|))
(define-fun .def_87 () Bool (= .def_16 |!{$(in_main#0)<v>}.next|))
(define-fun .def_203 () Bool (and .def_87 .def_202))
(define-fun .def_205 () Bool (and .def_203 .def_204))
(define-fun .def_206 () Bool (and .def_91 .def_205))
(define-fun .def_196 () Bool (not .def_195))
(define-fun .def_207 () Bool (and .def_196 .def_206))
(define-fun .def_221 () Bool (and .def_207 .def_220))
(define-fun .def_224 () Bool (or .def_221 .def_223))
(define-fun .def_183 () Bool (= .def_40 73))
(define-fun .def_95 () Bool (= !pc.next 0))
(define-fun .def_191 () Bool (and .def_95 .def_183))
(define-fun .def_143 () Int (select .def_18 .def_10))
(define-fun .def_144 () Bool (= .def_16 .def_143))
(define-fun .def_145 () Int (ite .def_144 1 0))
(define-fun .def_146 () Bool (= .def_145 0))
(define-fun .def_147 () Bool (not .def_146))
(define-fun .def_141 () Bool (= .def_10 (- 1)))
(define-fun .def_142 () Bool (not .def_141))
(define-fun .def_150 () Bool (and .def_142 .def_147))
(define-fun .def_153 () Bool (or .def_141 .def_150))
(define-fun .def_86 () Bool (and .def_84 .def_85))
(define-fun .def_88 () Bool (and .def_86 .def_87))
(define-fun .def_90 () Bool (and .def_88 .def_89))
(define-fun .def_92 () Bool (and .def_90 .def_91))
(define-fun .def_180 () Bool (and .def_92 .def_153))
(define-fun .def_102 () Bool (<= .def_8 .def_12))
(define-fun .def_99 () Bool (<= .def_12 0))
(define-fun .def_100 () Bool (not .def_99))
(define-fun .def_97 () Bool (<= .def_20 .def_8))
(define-fun .def_98 () Bool (not .def_97))
(define-fun .def_101 () Bool (and .def_98 .def_100))
(define-fun .def_103 () Bool (and .def_101 .def_102))
(define-fun .def_140 () Bool (not .def_103))
(define-fun .def_181 () Bool (and .def_140 .def_180))
(define-fun .def_192 () Bool (and .def_181 .def_191))
(define-fun .def_187 () Bool (= !pc.next 129))
(define-fun .def_188 () Bool (and .def_183 .def_187))
(define-fun .def_171 () Bool (and .def_80 .def_146))
(define-fun .def_172 () Bool (and .def_81 .def_171))
(define-fun .def_173 () Bool (and .def_83 .def_172))
(define-fun .def_174 () Bool (and .def_85 .def_173))
(define-fun .def_175 () Bool (and .def_87 .def_174))
(define-fun .def_176 () Bool (and .def_89 .def_175))
(define-fun .def_177 () Bool (and .def_91 .def_176))
(define-fun .def_178 () Bool (and .def_142 .def_177))
(define-fun .def_179 () Bool (and .def_140 .def_178))
(define-fun .def_189 () Bool (and .def_179 .def_188))
(define-fun .def_185 () Bool (and .def_183 .def_184))
(define-fun .def_160 () Int (* (- 1) |!{$(in_main#0)<j>}.next|))
(define-fun .def_161 () Int (+ .def_12 .def_160))
(define-fun .def_162 () Bool (= .def_161 1))
(define-fun .def_158 () Bool (= |!{$(in_main#0)<idx>}.next| |%{$(in_main#0)<idx>}#4|))
(define-fun .def_155 () Int (* (- 1) |!{$(in_main#0)<i>}.next|))
(define-fun .def_156 () Int (+ .def_8 .def_155))
(define-fun .def_157 () Bool (= .def_156 (- 1)))
(define-fun .def_159 () Bool (and .def_157 .def_158))
(define-fun .def_163 () Bool (and .def_159 .def_162))
(define-fun .def_164 () Bool (and .def_85 .def_163))
(define-fun .def_165 () Bool (and .def_87 .def_164))
(define-fun .def_166 () Bool (and .def_89 .def_165))
(define-fun .def_167 () Bool (and .def_91 .def_166))
(define-fun .def_131 () Int (* (- 1) |%{$(in_main#0)<idx>}#4|))
(define-fun .def_132 () Int (+ .def_12 .def_131))
(define-fun .def_133 () Bool (= .def_132 1))
(define-fun .def_118 () Int (+ .def_12 (- 1)))
(define-fun .def_119 () Int (select .def_18 .def_118))
(define-fun .def_120 () Bool (= .def_16 .def_119))
(define-fun .def_135 () Bool (and .def_120 .def_133))
(define-fun .def_130 () Bool (= |%{$(in_main#0)<idx>}#2| |%{$(in_main#0)<idx>}#4|))
(define-fun .def_121 () Bool (not .def_120))
(define-fun .def_134 () Bool (and .def_121 .def_130))
(define-fun .def_136 () Bool (or .def_134 .def_135))
(define-fun .def_168 () Bool (and .def_136 .def_167))
(define-fun .def_112 () Bool (= .def_8 |%{$(in_main#0)<idx>}#2|))
(define-fun .def_104 () Int (select .def_18 .def_8))
(define-fun .def_105 () Bool (= .def_16 .def_104))
(define-fun .def_114 () Bool (and .def_105 .def_112))
(define-fun .def_111 () Bool (= .def_10 |%{$(in_main#0)<idx>}#2|))
(define-fun .def_106 () Bool (not .def_105))
(define-fun .def_113 () Bool (and .def_106 .def_111))
(define-fun .def_115 () Bool (or .def_113 .def_114))
(define-fun .def_169 () Bool (and .def_115 .def_168))
(define-fun .def_170 () Bool (and .def_103 .def_169))
(define-fun .def_186 () Bool (and .def_170 .def_185))
(define-fun .def_190 () Bool (or .def_186 .def_189))
(define-fun .def_193 () Bool (or .def_190 .def_192))
(define-fun .def_78 () Bool (and .def_43 .def_77))
(define-fun .def_73 () Bool (= |!{$(in_main#0)<N>}.next| |!{$(in_main#0)<$(in___VERIFIER_nondet_int#0)<h#<__VERIFIER_nondet_int.return>>>}|))
(define-fun .def_71 () Bool (= |!{$(in_main#0)<array.1>}.next| |%{$(in_main#0)<array.1>}#1|))
(define-fun .def_69 () Bool (= |!{$(in_main#0)<v>}.next| |%{$(in_main#0)<v>}#1|))
(define-fun .def_67 () Bool (= |!{$(in_main#0)<k>}.next| 0))
(define-fun .def_65 () Bool (= |!{$(in_main#0)<j>}.next| |%{$(in_main#0)<j>}#1|))
(define-fun .def_63 () Bool (= |!{$(in_main#0)<idx>}.next| |%{$(in_main#0)<idx>}#1|))
(define-fun .def_62 () Bool (= |!{$(in_main#0)<i>}.next| |%{$(in_main#0)<i>}#1|))
(define-fun .def_64 () Bool (and .def_62 .def_63))
(define-fun .def_66 () Bool (and .def_64 .def_65))
(define-fun .def_68 () Bool (and .def_66 .def_67))
(define-fun .def_70 () Bool (and .def_68 .def_69))
(define-fun .def_72 () Bool (and .def_70 .def_71))
(define-fun .def_74 () Bool (and .def_72 .def_73))
(define-fun .def_57 () Bool (<= |!{$(in_main#0)<$(in___VERIFIER_nondet_int#0)<h#<__VERIFIER_nondet_int.return>>>}| 0))
(define-fun .def_58 () Bool (not .def_57))
(define-fun .def_59 () Int (ite .def_58 1 0))
(define-fun .def_60 () Bool (= .def_59 0))
(define-fun .def_61 () Bool (not .def_60))
(define-fun .def_75 () Bool (and .def_61 .def_74))
(define-fun .def_79 () Bool (and .def_75 .def_78))
(define-fun .def_194 () Bool (or .def_79 .def_193))
(define-fun .def_225 () Bool (! (or .def_194 .def_224) :trans true))
(define-fun .def_94 () Bool (= .def_40 129))
(define-fun .def_226 () Bool (! (not .def_94) :invar-property 0 :invar-property-name ||))
(assert true)
